c --- [ banner ] -------------------------------------------------------------
c 
c CaDiCaL Radically Simplified CDCL SAT Solver
c Copyright (c) 2016-2021 A. Biere, M. Fleury, N. Froleyks
c 
c Version 1.5.2 ca9bff05c11bde5eae4912f9932871d1527e61d8
c g++ (GCC) 9.3.0 -Wall -Wextra -O3 -DNDEBUG
c Thu Jul 28 23:42:48 EDT 2022 Linux gra-login3 3.10.0-1160.66.1.el7.x86_64 x86_64
c 
c --- [ limit ] --------------------------------------------------------------
c 
c setting conflict limit to 200000 conflicts (due to '200000')
c 
c --- [ parsing input ] ------------------------------------------------------
c 
c reading DIMACS file from '23.cubes618.adj'
c opening file to read '23.cubes618.adj'
c found 'p cnf 5320 914898' header
c parsed 914898 clauses in 8.16 seconds process time
c closing file '23.cubes618.adj'
c after reading 637830027 bytes 608.3 MB
c 
c --- [ options ] ------------------------------------------------------------
c 
c all options are set to their default value
c 
c --- [ solving ] ------------------------------------------------------------
c 
c time measured in process time since initialization
c 
c  seconds   reductions  redundant  irredundant
c          MB    restarts       trail      variables
c           level   conflicts       glue        remaining
c 
c *  8.16 630  0 0   0    0    0  0% 0 914847 2084 39%
c {  8.53 654  0 0   0    0    0  0% 0 914847 2084 39%
c i  9.38 696 599 0   2   50   42 26% 5 914847 2076 39%
c i 10.21 709 487 0   9   78   61 27% 12 914847 2074 39%
c - 15.14 715 155 1  46  300  234 25% 17 438191 2074 39%
c i 16.00 716 119 1  57  426  333 26% 18 438191 2068 39%
c i 16.12 717 114 1  67  466  365 26% 19 438191 2067 39%
c i 16.18 717 113 1  70  475  372 26% 19 438191 2066 39%
c i 16.39 718 108 1  73  500  390 26% 19 438191 2065 39%
c i 16.40 718 108 1  73  501  390 26% 19 438191 2064 39%
c i 16.46 718 106 1  73  513  400 26% 18 438191 2063 39%
c i 16.60 718 104 1  73  527  412 26% 18 438191 2011 38%
c i 16.99 718 93 1  73  607  470 26% 18 438191 2010 38%
c i 17.04 718 91 1  73  632  490 26% 17 438191 2009 38%
c i 17.07 718 89 1  73  645  497 26% 17 438191 2008 38%
c i 17.08 718 89 1  73  649  500 26% 17 438191 2007 38%
c i 17.36 719 89 1  75  674  523 26% 18 438191 2006 38%
c i 17.45 719 88 1  83  711  547 26% 18 438191 2004 38%
c i 17.45 719 88 1  83  716  549 26% 18 438191 2001 38%
c i 17.86 719 95 1  89  771  601 26% 20 438191 2000 38%
c 
c  seconds   reductions  redundant   irredundant
c          MB    restarts       trail       variables
c           level   conflicts       glue         remaining
c 
c i 17.92 719 94 1  94  787  609 26% 20 438191 1999 38%
c i 17.96 719 94 1  94  790  611 26% 20 438191 1998 38%
c i 17.98 719 93 1  95  794  614 26% 19 438191 1997 38%
c i 18.02 719 93 1  99  805  622 26% 19 438191 1996 38%
c i 18.17 720 90 1 101  842  652 26% 19 438191 1995 38%
c i 18.19 720 89 1 101  847  654 26% 19 438191 1994 37%
c i 18.23 720 89 1 101  853  658 26% 19 438191 1993 37%
c i 18.33 720 89 1 102  857  661 26% 19 438191 1992 37%
c i 18.52 720 89 1 106  880  680 26% 20 438191 1991 37%
c i 18.68 720 89 1 111  901  698 26% 20 438191 1990 37%
c } 19.52 721 86 1 134 1002  772 26% 21 438191 1990 37%
c [ 19.52 721  0 1 134 1002  772  0% 0 438191 1990 37%
c O 19.52 721  2 1 134 1003  773 11% 1 438191 1990 37%
c - 21.13 831 25 2 134 1287  905 29% 19 371835 1990 37%
c i 21.53 832 26 2 134 1411 1009 29% 19 371835 1989 37%
c i 21.82 832 27 2 134 1783 1225 29% 22 371835 1988 37%
c i 22.24 831 25 2 135 2519 1587 29% 21 371835 1987 37%
c - 22.72 795 24 3 135 2702 1272 29% 21 371826 1987 37%
c ] 23.28 795 24 3 135 3003 1448 54% 21 371826 1987 37%
c { 23.28 795 86 3 135 3003 1448 69% 21 371826 1987 37%
c 
c  seconds   reductions  redundant   irredundant
c          MB    restarts       trail       variables
c           level   conflicts       glue         remaining
c 
c F 23.31 795 86 3 136 3004 1449 69% 21 371826 1987 37%
c i 24.04 795 82 3 138 3101 1527 67% 21 371826 1986 37%
c i 24.47 795 81 3 149 3147 1565 66% 21 371826 1985 37%
c i 24.49 795 81 3 149 3149 1566 66% 21 371826 1984 37%
c i 24.60 795 80 3 149 3188 1597 65% 21 371826 1983 37%
c i 24.62 795 79 3 149 3208 1614 65% 21 371826 1982 37%
c i 24.83 795 79 3 156 3247 1645 64% 22 371826 1981 37%
c i 25.30 795 80 3 168 3302 1681 63% 22 371826 1979 37%
c i 25.55 795 80 3 175 3332 1703 62% 22 371826 1978 37%
c i 25.67 795 80 3 178 3344 1713 62% 22 371826 1977 37%
c i 26.44 795 75 3 182 3493 1834 60% 22 371826 1976 37%
c i 26.63 795 72 3 182 3591 1916 60% 21 371826 1975 37%
c i 26.94 795 67 3 182 3796 2088 58% 21 371826 1974 37%
c i 26.99 795 67 3 182 3800 2091 58% 21 371826 1962 37%
c i 27.76 795 67 3 205 3955 2183 56% 21 371826 1959 37%
c i 27.77 795 67 3 205 3961 2187 56% 21 371826 1958 37%
c i 27.88 795 67 3 205 3982 2205 56% 21 371826 1957 37%
c - 31.86 788 63 4 270 4586 2021 54% 22 371555 1957 37%
c 2 35.06 788 62 4 323 5003 3522 52% 24 371543 1945 37%
c p 43.15 789 62 4 323 5003 6507 52% 24 371543 1911 36%
c 
c  seconds   reductions  redundant   irredundant
c          MB    restarts       trail       variables
c           level   conflicts       glue         remaining
c 
c d 43.69 789 62 4 323 5003 6121 52% 24 371416 1907 36%
c # 46.96 788 57 4 395 6005 6892 52% 24 371416 1907 36%
c - 50.31 783 53 5 461 6945 3036 49% 23 371416 1907 36%
c } 50.39 783 53 5 461 7003 3084 49% 23 371416 1907 36%
c [ 50.39 783 24 5 461 7003 3084 54% 21 371416 1907 36%
c - 51.56 783 23 6 463 9771 3526 52% 20 371416 1907 36%
c I 51.73 783 23 6 463 10006 3702 52% 20 371416 1907 36%
c - 54.75 783 31 7 465 13068 4013 51% 26 371416 1907 36%
c ] 56.14 783 32 7 466 15003 5389 51% 27 371416 1907 36%
c { 56.14 783 53 7 466 15003 5389 49% 23 371416 1907 36%
c 2 56.22 784 53 7 466 15003 6663 49% 23 371414 1907 36%
c p 58.34 783 53 7 466 15003 9484 49% 23 371414 1907 36%
c B 58.50 783 53 7 466 15007 9488 49% 23 371414 1907 36%
c - 62.44 784 49 8 606 16835 5204 49% 23 371414 1907 36%
c s 62.93 784 47 8 611 17557 5630 49% 23 370117 1907 36%
c v 69.26 784 47 8 611 17557 5630 49% 23 370087 1907 36%
c w 69.36 784 47 8 611 17557 5624 49% 23 370087 1907 36%
c t 69.37 784 47 8 611 17557 5624 49% 23 370074 1907 36%
c e 70.68 786 47 8 611 17557 5039 49% 23 368057 884 17%
c s 70.80 786 47 8 611 17557 5038 49% 23 367948 884 17%
c 
c  seconds   reductions   redundant   irredundant
c          MB    restarts        trail       variables
c           level    conflicts       glue        remaining
c 
c W 75.34 786 39 8 637 21009 7464 71% 22 367948 884 17%
c - 75.58 785 39 9 637 21075 5404 71% 22 367948 884 17%
c - 82.95 786 35 10 785 25772 6227 70% 20 367948 884 17%
c F 84.42 786 33 10 809 28010 7515 70% 20 367948 884 17%
c 3 89.62 786 33 10 1016 30003 9769 69% 21 367948 884 17%
c 2 89.68 786 33 10 1016 30003 9804 69% 21 367947 884 17%
c p 92.48 786 33 10 1016 30003 12012 69% 21 367947 883 17%
c - 95.17 786 34 11 1129 30940 6995 69% 21 367944 883 17%
c } 95.22 786 34 11 1129 31004 7036 69% 21 367944 883 17%
c [ 95.22 786 32 11 1129 31004 7036 115% 27 367944 883 17%
c B 98.65 786 29 11 1132 36015 10175 98% 25 367944 883 17%
c - 99.29 786 29 12 1132 36576 6880 97% 24 367944 883 17%
c ] 101.59 786 27 12 1136 42659 10723 88% 23 367944 883 17%
c 1 101.59 786 27 12 1136 42659 10723 88% 23 367944 883 17%
c 
c --- [ writing output ] -----------------------------------------------------
c 
c writing simplified CNF to DIMACS file 'simp/23.cubes618.adj.simp1'
c * 101.59 786 27 12 1136 42659 10723 88% 23 367944 883 17%
c opening file to write 'simp/23.cubes618.adj.simp1'
c writing 'p cnf 5320 367944' header
c closing file 'simp/23.cubes618.adj.simp1'
c after writing 152183473 bytes 145.1 MB
c wrote 367944 clauses in 1.14 seconds process time
c 
c --- [ writing extension ] --------------------------------------------------
c 
c writing extension stack to 'simp/23.cubes618.adj.ext1'
c opening file to write 'simp/23.cubes618.adj.ext1'
c closing file 'simp/23.cubes618.adj.ext1'
c after writing 72355 bytes 0.1 MB
c wrote 3175 witnesses in 0.00 seconds process time
c 
c --- [ result ] -------------------------------------------------------------
c 
s SATISFIABLE
c 
c --- [ run-time profiling ] -------------------------------------------------
c 
c process time taken by individual solving procedures
c (percentage relative to process time for solving)
c 
c        70.15   75.08% search
c        53.62   57.39% unstable
c        23.28   24.92% simplify
c        15.88   17.00% stable
c        13.00   13.92% probe
c         8.16    8.73% parse
c         6.40    6.85% vivify
c         2.33    2.49% elim
c         0.37    0.40% lucky
c         0.28    0.30% walk
c         0.24    0.26% subsume
c         0.15    0.16% ternary
c   =================================
c        93.43   90.95% solve
c 
c last line shows process time for solving
c (percentage relative to total process time)
c 
c --- [ statistics ] ---------------------------------------------------------
c 
c chronological:              8423        19.74 %  of conflicts
c conflicts:                 42659       456.59    per second
c decisions:                123627      1323.21    per second
c eliminated:                 1023        19.23 %  of all variables
c fixed:                       567        10.66 %  of all variables
c learned:                   41723        97.81 %  per conflict
c learned_lits:            7260380       100.00 %  learned literals
c minimized:                     0         0.00 %  learned literals
c shrunken:                4447171        61.25 %  learned literals
c minishrunken:             591054         8.14 %  learned literals
c propagations:            4053091         0.04 M  per second
c reduced:                   18329        42.97 %  per conflict
c rephased:                      8      5332.38    interval
c restarts:                   1136        37.55    interval
c stabilizing:                   3        50.77 %  of conflicts
c substituted:                  10         0.19 %  of all variables
c subsumed:                  13564         0.67 %  of all clauses
c strengthened:               7337         0.36 %  of all clauses
c ternary:                    3227         0.84 %  of resolved
c vivified:                     59         0.00 %  of all clauses
c walked:                        1     42659.00    interval
c weakened:                   2608         3.08    average size
c 
c seconds are measured in process time for solving
c 
c --- [ resources ] ----------------------------------------------------------
c 
c total process time since initialization:       102.73    seconds
c total real time since initialization:          103.10    seconds
c maximum resident set size of process:          980.37    MB
c 
c --- [ shutting down ] ------------------------------------------------------
c 
c exit 10
WARNING! DIMACS header mismatch: wrong number of variables.
============================[ Problem Statistics ]=============================
|                                                                             |
|  Number of variables:          5282                                         |
|  Number of clauses:          367948                                         |
|  Parse time:                   2.05 s                                       |
|  Simplification time:          0.06 s                                       |
|                                                                             |
============================[ Search Statistics ]====================================================
| Conflicts |          ORIGINAL         |          LEARNT          | Num Sols |      SUBGRAPHS      |
|           |    Vars  Clauses Literals |    Limit  Clauses Lit/Cl |          | Canonical Noncanon. |
=====================================================================================================
|       100 |    5207   367948 34053283 |     2000      100    177 |        0 |        12         0 |
|       250 |    5207   367948 34053283 |     2000      250    125 |        0 |        33         0 |
|       477 |    5207   367950 34053373 |     2000      477    103 |        0 |        39         2 |
|      1234 |    5207   368370 34060521 |     2000     1234     57 |        0 |       244       422 |
|      3375 |    5207   370005 34083367 |     3600     2375     14 |        0 |       739      2057 |
|      6850 |    5207   372721 34126440 |     5005     4055     13 |        0 |      1417      4773 |
|     12047 |    5207   376779 34188696 |     7558     3605     11 |        0 |      2458      8831 |
|     20882 |    5207   383906 34297634 |     8785     8667     18 |        0 |      4482     15958 |
|     44356 |    5207   404818 34623455 |    13613    10969     12 |        0 |      7581     36870 |
|     54349 |    5207   410967 34720835 |    14810    14159     23 |        0 |      8580     43019 |
|     78660 |    5207   429512 35003499 |    18409    14469     12 |        0 |     11100     61564 |
|    150848 |    5207   493051 35844373 |    25612    22460     11 |        0 |     18850    125103 |
|    194693 |    5130   523921 36207147 |    29209    26097     19 |        0 |     21696    155974 |
=====================================================================================================
Number of solutions   : 0
Canonical subgraphs   : 21782          (48 /sec)
          order  3    : 1              (200000 /sec)
          order  4    : 1              (500000 /sec)
          order  5    : 1              (250000 /sec)
          order  6    : 1              (55556 /sec)
          order  7    : 2              (10101 /sec)
          order  8    : 4              (2077 /sec)
          order  9    : 9              (433 /sec)
          order 10    : 40             (129 /sec)
          order 11    : 282            (59 /sec)
          order 12    : 1992           (42 /sec)
          order 13    : 18781          (49 /sec)
          order 14    : 555            (36 /sec)
          order 15    : 113            (39 /sec)
          order 16    : 0              (-nan /sec)
          order 17    : 0              (-nan /sec)
          order 18    : 0              (-nan /sec)
          order 19    : 0              (-nan /sec)
          order 20    : 0              (-nan /sec)
          order 21    : 0              (-nan /sec)
Noncanonical subgraphs: 157528         (373 /sec)
          order  3    : 0              (-nan /sec)
          order  4    : 0              (-nan /sec)
          order  5    : 0              (-nan /sec)
          order  6    : 0              (-nan /sec)
          order  7    : 0              (-nan /sec)
          order  8    : 0              (-nan /sec)
          order  9    : 0              (-nan /sec)
          order 10    : 0              (-nan /sec)
          order 11    : 0              (-nan /sec)
          order 12    : 0              (-nan /sec)
          order 13    : 32682          (2153 /sec)
          order 14    : 120859         (306 /sec)
          order 15    : 3741           (324 /sec)
          order 16    : 246            (366 /sec)
          order 17    : 0              (-nan /sec)
          order 18    : 0              (-nan /sec)
          order 19    : 0              (-nan /sec)
          order 20    : 0              (-nan /sec)
Canonicity checking   : 450.42 s
Noncanonicity checking: 422.07 s
Total canonicity time : 872.49 s
database reductions   : 22
restarts              : 510
conflicts             : 196560         (201 /sec)
decisions             : 398903         (0.00 % random) (409 /sec)
propagations          : 8862847        (9083 /sec)
conflict literals     : 3797210        (57.44 % deleted)
actual reward         : 0.104030
Memory used           : 252.00 MB
CPU time              : 975.793 s

UNSATISFIABLE
